
===== New CPLEX run =====
Instance: /home/yorig/tuner/mpils-tests/instances/miplib/easy/lotsize.mps
Config: /scratch/yorig/mpils-results-grid-seconds-5-watchdog/easy/24proc/seed-5/4_lotsize_seed-5_20260504_011421/iterated_local_search/run_5_worker_1/ils_config_15348375119012348465.prm
========================

Selected objective sense:  MINIMIZE
Selected objective  name:  R1921
Selected RHS        name:  B
Selected bound      name:  BOUND
Wall watchdog: enabled factor=1 grace=1 limit=6 seconds
Version identifier: 22.1.2.0 | 2024-11-26 | 0edbb82fd
CPXPARAM_Threads                                 8
CPXPARAM_Parallel                                1
CPXPARAM_MIP_Cuts_Cliques                        3
CPXPARAM_Preprocessing_CoeffReduce               2
CPXPARAM_MIP_Cuts_Covers                         3
CPXPARAM_MIP_Strategy_SubAlgorithm               4
CPXPARAM_MIP_Cuts_FlowCovers                     2
CPXPARAM_MIP_Cuts_Implied                        2
CPXPARAM_MIP_Cuts_GUBCovers                      1
CPXPARAM_MIP_Limits_GomoryCand                   25
CPXPARAM_MIP_Cuts_Gomory                         2
CPXPARAM_MIP_Cuts_MIRCut                         2
CPXPARAM_MIP_Cuts_Disjunctive                    3
CPXPARAM_MIP_Limits_AggForCut                    1
CPXPARAM_Emphasis_MIP                            5
CPXPARAM_Preprocessing_Symmetry                  0
CPXPARAM_Barrier_Ordering                        1
CPXPARAM_Preprocessing_Fill                      20
CPXPARAM_TimeLimit                               5
CPXPARAM_MIP_Limits_CutsFactor                   16
Tried aggregator 1 time.
MIP Presolve eliminated 595 rows and 0 columns.
MIP Presolve added 1190 rows and 0 columns.
MIP Presolve modified 10 coefficients.
Reduced MIP has 2515 rows, 2985 columns, and 7755 nonzeros.
Reduced MIP has 1195 binaries, 0 generals, 0 SOSs, and 0 indicators.
Presolve time = 0.00 sec. (4.53 ticks)
Probing fixed 0 vars, tightened 5487 bounds.
Probing time = 0.01 sec. (18.38 ticks)
Tried aggregator 2 times.
MIP Presolve modified 1206 coefficients.
Aggregator did 10 substitutions.
Reduced MIP has 2505 rows, 2975 columns, and 7735 nonzeros.
Reduced MIP has 1195 binaries, 0 generals, 0 SOSs, and 0 indicators.
Presolve time = 0.00 sec. (5.29 ticks)
Probing fixed 0 vars, tightened 2401 bounds.
Probing time = 0.00 sec. (6.41 ticks)
Clique table members: 190.
MIP emphasis: heuristic.
MIP search method: dynamic search.
Parallel mode: deterministic, using up to 8 threads.
Root relaxation solution time = 0.01 sec. (7.84 ticks)

        Nodes                                         Cuts/
   Node  Left     Objective  IInf  Best Integer    Best Bound    ItCnt     Gap

      0     0   348385.3466   472                 348385.3466      882         
*     0+    0                       1.40386e+07   348385.3466            97.52%
      0     0   537613.6222   495   1.40386e+07     Cuts: 726      903   96.17%
      0     0   765943.0017   646   1.40386e+07     Cuts: 726      928   94.54%
      0     0   821774.7228   797   1.40386e+07     Cuts: 543      954   94.15%
Advanced basis not built.

GUB cover cuts applied:  0
Clique cuts applied:  0
Cover cuts applied:  10
Implied bound cuts applied:  15
Flow cuts applied:  427
Mixed integer rounding cuts applied:  389
Flow path cuts applied:  189
Multi commodity flow cuts applied:  32
Gomory fractional cuts applied:  14
Disjunctive cuts applied:  39
Cone linearizations applied:  0

Root node processing (before b&c):
  Real time             =    5.00 sec. (7311.19 ticks)
Parallel b&c, 8 threads:
  Real time             =    0.00 sec. (0.00 ticks)
  Sync time (average)   =    0.00 sec.
  Wait time (average)   =    0.00 sec.
                          ------------
Total (root+branch&cut) =    5.00 sec. (7311.19 ticks)
Gap: 94.15%
Upper bound: 1.40386e+07
Lower bound: 821775
Termination status: Normal
End of CPLEX run. Time: 5.00348 seconds

===== New CPLEX run =====
Instance: /home/yorig/tuner/mpils-tests/instances/miplib/easy/lotsize.mps
Config: /scratch/yorig/mpils-results-grid-seconds-5-watchdog/easy/24proc/seed-5/4_lotsize_seed-5_20260504_011421/iterated_local_search/run_5_worker_1/ils_config_14341366658332284757.prm
========================

Selected objective sense:  MINIMIZE
Selected objective  name:  R1921
Selected RHS        name:  B
Selected bound      name:  BOUND
Wall watchdog: enabled factor=1 grace=1 limit=6 seconds
Version identifier: 22.1.2.0 | 2024-11-26 | 0edbb82fd
CPXPARAM_Threads                                 8
CPXPARAM_Parallel                                1
CPXPARAM_MIP_Cuts_Cliques                        3
CPXPARAM_Preprocessing_CoeffReduce               2
CPXPARAM_MIP_Cuts_Covers                         3
CPXPARAM_MIP_Strategy_SubAlgorithm               4
CPXPARAM_MIP_Cuts_FlowCovers                     2
CPXPARAM_MIP_Cuts_Implied                        2
CPXPARAM_MIP_Cuts_GUBCovers                      1
CPXPARAM_MIP_Limits_GomoryCand                   25
CPXPARAM_MIP_Cuts_Gomory                         2
CPXPARAM_MIP_Cuts_MIRCut                         2
CPXPARAM_MIP_Cuts_Disjunctive                    3
CPXPARAM_MIP_Limits_AggForCut                    0
CPXPARAM_Emphasis_MIP                            5
CPXPARAM_Preprocessing_Symmetry                  0
CPXPARAM_Barrier_Ordering                        1
CPXPARAM_Preprocessing_Fill                      20
CPXPARAM_TimeLimit                               5
CPXPARAM_MIP_Limits_CutsFactor                   16
Tried aggregator 1 time.
MIP Presolve eliminated 595 rows and 0 columns.
MIP Presolve added 1190 rows and 0 columns.
MIP Presolve modified 10 coefficients.
Reduced MIP has 2515 rows, 2985 columns, and 7755 nonzeros.
Reduced MIP has 1195 binaries, 0 generals, 0 SOSs, and 0 indicators.
Presolve time = 0.00 sec. (4.53 ticks)
Probing fixed 0 vars, tightened 5487 bounds.
Probing time = 0.01 sec. (18.38 ticks)
Tried aggregator 2 times.
MIP Presolve modified 1206 coefficients.
Aggregator did 10 substitutions.
Reduced MIP has 2505 rows, 2975 columns, and 7735 nonzeros.
Reduced MIP has 1195 binaries, 0 generals, 0 SOSs, and 0 indicators.
Presolve time = 0.00 sec. (5.29 ticks)
Probing fixed 0 vars, tightened 2401 bounds.
Probing time = 0.00 sec. (6.41 ticks)
Clique table members: 190.
MIP emphasis: heuristic.
MIP search method: dynamic search.
Parallel mode: deterministic, using up to 8 threads.
Root relaxation solution time = 0.01 sec. (7.84 ticks)

        Nodes                                         Cuts/
   Node  Left     Objective  IInf  Best Integer    Best Bound    ItCnt     Gap

      0     0   348385.3466   472                 348385.3466      882         
*     0+    0                       1.40386e+07   348385.3466            97.52%
      0     0   534079.8270   507   1.40386e+07     Cuts: 726      904   96.20%
      0     0   704162.6574   666   1.40386e+07     Cuts: 726      931   94.98%

GUB cover cuts applied:  0
Clique cuts applied:  0
Cover cuts applied:  10
Implied bound cuts applied:  16
Flow cuts applied:  427
Mixed integer rounding cuts applied:  367
Flow path cuts applied:  84
Multi commodity flow cuts applied:  30
Gomory fractional cuts applied:  19
Disjunctive cuts applied:  69
Cone linearizations applied:  0

Root node processing (before b&c):
  Real time             =    5.00 sec. (7701.43 ticks)
Parallel b&c, 8 threads:
  Real time             =    0.00 sec. (0.00 ticks)
  Sync time (average)   =    0.00 sec.
  Wait time (average)   =    0.00 sec.
                          ------------
Total (root+branch&cut) =    5.00 sec. (7701.43 ticks)
Gap: 94.98%
Upper bound: 1.40386e+07
Lower bound: 704163
Termination status: Normal
End of CPLEX run. Time: 5.00289 seconds

===== New CPLEX run =====
Instance: /home/yorig/tuner/mpils-tests/instances/miplib/easy/lotsize.mps
Config: /scratch/yorig/mpils-results-grid-seconds-5-watchdog/easy/24proc/seed-5/4_lotsize_seed-5_20260504_011421/iterated_local_search/run_5_worker_1/ils_config_17237909765061208048.prm
========================

Selected objective sense:  MINIMIZE
Selected objective  name:  R1921
Selected RHS        name:  B
Selected bound      name:  BOUND
Wall watchdog: enabled factor=1 grace=1 limit=6 seconds
Version identifier: 22.1.2.0 | 2024-11-26 | 0edbb82fd
CPXPARAM_Simplex_PGradient                       -1
CPXPARAM_Threads                                 8
CPXPARAM_Parallel                                1
CPXPARAM_MIP_Cuts_Cliques                        3
CPXPARAM_Preprocessing_CoeffReduce               2
CPXPARAM_MIP_Cuts_Covers                         3
CPXPARAM_MIP_Strategy_SubAlgorithm               4
CPXPARAM_MIP_Cuts_FlowCovers                     2
CPXPARAM_MIP_Cuts_Implied                        2
CPXPARAM_MIP_Cuts_GUBCovers                      1
CPXPARAM_MIP_Limits_GomoryCand                   25
CPXPARAM_MIP_Cuts_Gomory                         2
CPXPARAM_MIP_Cuts_MIRCut                         2
CPXPARAM_MIP_Cuts_Disjunctive                    3
CPXPARAM_MIP_Limits_AggForCut                    1
CPXPARAM_Emphasis_MIP                            5
CPXPARAM_Preprocessing_Symmetry                  0
CPXPARAM_Barrier_Ordering                        1
CPXPARAM_Preprocessing_Fill                      20
CPXPARAM_TimeLimit                               5
CPXPARAM_MIP_Limits_CutsFactor                   16
Tried aggregator 1 time.
MIP Presolve eliminated 595 rows and 0 columns.
MIP Presolve added 1190 rows and 0 columns.
MIP Presolve modified 10 coefficients.
Reduced MIP has 2515 rows, 2985 columns, and 7755 nonzeros.
Reduced MIP has 1195 binaries, 0 generals, 0 SOSs, and 0 indicators.
Presolve time = 0.00 sec. (4.53 ticks)
Probing fixed 0 vars, tightened 5487 bounds.
Probing time = 0.01 sec. (18.38 ticks)
Tried aggregator 2 times.
MIP Presolve modified 1206 coefficients.
Aggregator did 10 substitutions.
Reduced MIP has 2505 rows, 2975 columns, and 7735 nonzeros.
Reduced MIP has 1195 binaries, 0 generals, 0 SOSs, and 0 indicators.
Presolve time = 0.00 sec. (5.29 ticks)
Probing fixed 0 vars, tightened 2401 bounds.
Probing time = 0.00 sec. (6.41 ticks)
Clique table members: 190.
MIP emphasis: heuristic.
MIP search method: dynamic search.
Parallel mode: deterministic, using up to 8 threads.
Root relaxation solution time = 0.01 sec. (7.84 ticks)

        Nodes                                         Cuts/
   Node  Left     Objective  IInf  Best Integer    Best Bound    ItCnt     Gap

      0     0   348385.3466   472                 348385.3466      882         
*     0+    0                       1.40386e+07   348385.3466            97.52%
      0     0   537613.6222   495   1.40386e+07     Cuts: 726      903   96.17%
      0     0   765943.0017   646   1.40386e+07     Cuts: 726      928   94.54%
      0     0   821774.7228   797   1.40386e+07     Cuts: 543      954   94.15%
Advanced basis not built.

GUB cover cuts applied:  0
Clique cuts applied:  0
Cover cuts applied:  10
Implied bound cuts applied:  15
Flow cuts applied:  427
Mixed integer rounding cuts applied:  389
Flow path cuts applied:  189
Multi commodity flow cuts applied:  32
Gomory fractional cuts applied:  14
Disjunctive cuts applied:  39
Cone linearizations applied:  0

Root node processing (before b&c):
  Real time             =    5.00 sec. (7248.64 ticks)
Parallel b&c, 8 threads:
  Real time             =    0.00 sec. (0.00 ticks)
  Sync time (average)   =    0.00 sec.
  Wait time (average)   =    0.00 sec.
                          ------------
Total (root+branch&cut) =    5.00 sec. (7248.64 ticks)
Gap: 94.15%
Upper bound: 1.40386e+07
Lower bound: 821775
Termination status: Normal
End of CPLEX run. Time: 5.00309 seconds

===== New CPLEX run =====
Instance: /home/yorig/tuner/mpils-tests/instances/miplib/easy/lotsize.mps
Config: /scratch/yorig/mpils-results-grid-seconds-5-watchdog/easy/24proc/seed-5/4_lotsize_seed-5_20260504_011421/iterated_local_search/run_5_worker_1/ils_config_2848030723071492345.prm
========================

Selected objective sense:  MINIMIZE
Selected objective  name:  R1921
Selected RHS        name:  B
Selected bound      name:  BOUND
Wall watchdog: enabled factor=1 grace=1 limit=6 seconds
Version identifier: 22.1.2.0 | 2024-11-26 | 0edbb82fd
CPXPARAM_Threads                                 8
CPXPARAM_Parallel                                1
CPXPARAM_MIP_Cuts_Cliques                        3
CPXPARAM_Preprocessing_CoeffReduce               2
CPXPARAM_MIP_Cuts_Covers                         3
CPXPARAM_MIP_Strategy_SubAlgorithm               4
CPXPARAM_MIP_Cuts_FlowCovers                     2
CPXPARAM_MIP_Cuts_Implied                        2
CPXPARAM_MIP_Cuts_GUBCovers                      1
CPXPARAM_MIP_Limits_GomoryCand                   25
CPXPARAM_MIP_Cuts_Gomory                         2
CPXPARAM_MIP_Cuts_MIRCut                         2
CPXPARAM_MIP_Cuts_Disjunctive                    -1
CPXPARAM_MIP_Limits_AggForCut                    1
CPXPARAM_Emphasis_MIP                            5
CPXPARAM_Preprocessing_Symmetry                  0
CPXPARAM_Barrier_Ordering                        1
CPXPARAM_Preprocessing_Fill                      20
CPXPARAM_TimeLimit                               5
CPXPARAM_MIP_Limits_CutsFactor                   16
Tried aggregator 1 time.
MIP Presolve eliminated 595 rows and 0 columns.
MIP Presolve added 1190 rows and 0 columns.
MIP Presolve modified 10 coefficients.
Reduced MIP has 2515 rows, 2985 columns, and 7755 nonzeros.
Reduced MIP has 1195 binaries, 0 generals, 0 SOSs, and 0 indicators.
Presolve time = 0.00 sec. (4.53 ticks)
Probing fixed 0 vars, tightened 5487 bounds.
Probing time = 0.01 sec. (18.38 ticks)
Tried aggregator 2 times.
MIP Presolve modified 1206 coefficients.
Aggregator did 10 substitutions.
Reduced MIP has 2505 rows, 2975 columns, and 7735 nonzeros.
Reduced MIP has 1195 binaries, 0 generals, 0 SOSs, and 0 indicators.
Presolve time = 0.00 sec. (5.29 ticks)
Probing fixed 0 vars, tightened 2401 bounds.
Probing time = 0.00 sec. (6.41 ticks)
Clique table members: 190.
MIP emphasis: heuristic.
MIP search method: dynamic search.
Parallel mode: deterministic, using up to 8 threads.
Root relaxation solution time = 0.01 sec. (7.84 ticks)

        Nodes                                         Cuts/
   Node  Left     Objective  IInf  Best Integer    Best Bound    ItCnt     Gap

      0     0   348385.3466   472                 348385.3466      882         
*     0+    0                       1.40386e+07   348385.3466            97.52%
      0     0   579149.3511   455   1.40386e+07     Cuts: 726      902   95.87%
      0     0   767649.2479   757   1.40386e+07     Cuts: 726      926   94.53%
      0     0   820456.2058   807   1.40386e+07     Cuts: 476      949   94.16%
*     0+    0                       1.06696e+07   820456.2058            92.31%
*     0+    0                       1.06150e+07   820456.2058            92.27%
      0     0  -1.00000e+75     0   1.06150e+07   820456.2058      949   92.27%
      0     0   862819.3086   840   1.06150e+07     Cuts: 427      974   91.87%
      0     0   886809.7067   891   1.06150e+07     Cuts: 305     1001   91.65%
      0     0   901753.5918   929   1.06150e+07     Cuts: 229     1027   91.50%
      0     0   913768.4827   948   1.06150e+07     Cuts: 206     1054   91.39%
Advanced basis not built.

GUB cover cuts applied:  0
Clique cuts applied:  0
Cover cuts applied:  10
Implied bound cuts applied:  21
Flow cuts applied:  350
Mixed integer rounding cuts applied:  572
Flow path cuts applied:  245
Multi commodity flow cuts applied:  55
Gomory fractional cuts applied:  3

Root node processing (before b&c):
  Real time             =    5.00 sec. (4713.58 ticks)
Parallel b&c, 8 threads:
  Real time             =    0.00 sec. (0.00 ticks)
  Sync time (average)   =    0.00 sec.
  Wait time (average)   =    0.00 sec.
                          ------------
Total (root+branch&cut) =    5.00 sec. (4713.58 ticks)
Gap: 91.39%
Upper bound: 1.0615e+07
Lower bound: 913768
Termination status: Normal
End of CPLEX run. Time: 5.00292 seconds

===== New CPLEX run =====
Instance: /home/yorig/tuner/mpils-tests/instances/miplib/easy/lotsize.mps
Config: /scratch/yorig/mpils-results-grid-seconds-5-watchdog/easy/24proc/seed-5/4_lotsize_seed-5_20260504_011421/iterated_local_search/run_5_worker_1/ils_config_5221579339972033116.prm
========================

Selected objective sense:  MINIMIZE
Selected objective  name:  R1921
Selected RHS        name:  B
Selected bound      name:  BOUND
Wall watchdog: enabled factor=1 grace=1 limit=6 seconds
Version identifier: 22.1.2.0 | 2024-11-26 | 0edbb82fd
CPXPARAM_Threads                                 8
CPXPARAM_Parallel                                1
CPXPARAM_MIP_Cuts_Cliques                        3
CPXPARAM_Preprocessing_CoeffReduce               2
CPXPARAM_MIP_Cuts_Covers                         3
CPXPARAM_MIP_Strategy_SubAlgorithm               4
CPXPARAM_MIP_Cuts_FlowCovers                     2
CPXPARAM_MIP_Cuts_Implied                        2
CPXPARAM_MIP_Cuts_GUBCovers                      1
CPXPARAM_MIP_Cuts_Gomory                         2
CPXPARAM_MIP_Cuts_MIRCut                         2
CPXPARAM_MIP_Cuts_Disjunctive                    -1
CPXPARAM_MIP_Limits_AggForCut                    1
CPXPARAM_Emphasis_MIP                            5
CPXPARAM_Preprocessing_Symmetry                  0
CPXPARAM_Barrier_Ordering                        1
CPXPARAM_Preprocessing_Fill                      20
CPXPARAM_TimeLimit                               5
CPXPARAM_MIP_Limits_CutsFactor                   16
Tried aggregator 1 time.
MIP Presolve eliminated 595 rows and 0 columns.
MIP Presolve added 1190 rows and 0 columns.
MIP Presolve modified 10 coefficients.
Reduced MIP has 2515 rows, 2985 columns, and 7755 nonzeros.
Reduced MIP has 1195 binaries, 0 generals, 0 SOSs, and 0 indicators.
Presolve time = 0.00 sec. (4.53 ticks)
Probing fixed 0 vars, tightened 5487 bounds.
Probing time = 0.01 sec. (18.38 ticks)
Tried aggregator 2 times.
MIP Presolve modified 1206 coefficients.
Aggregator did 10 substitutions.
Reduced MIP has 2505 rows, 2975 columns, and 7735 nonzeros.
Reduced MIP has 1195 binaries, 0 generals, 0 SOSs, and 0 indicators.
Presolve time = 0.00 sec. (5.29 ticks)
Probing fixed 0 vars, tightened 2401 bounds.
Probing time = 0.00 sec. (6.41 ticks)
Clique table members: 190.
MIP emphasis: heuristic.
MIP search method: dynamic search.
Parallel mode: deterministic, using up to 8 threads.
Root relaxation solution time = 0.01 sec. (7.84 ticks)

        Nodes                                         Cuts/
   Node  Left     Objective  IInf  Best Integer    Best Bound    ItCnt     Gap

      0     0   348385.3466   472                 348385.3466      882         
*     0+    0                       1.40386e+07   348385.3466            97.52%
      0     0   527311.9674   562   1.40386e+07     Cuts: 726      903   96.24%
      0     0   736766.2211   620   1.40386e+07     Cuts: 726      926   94.75%
      0     0   827318.5417   819   1.40386e+07     Cuts: 726      956   94.11%
*     0+    0                      8713903.0000   827318.5417            90.51%
      0     0  -1.00000e+75     0  8713903.0000   827318.5417      956   90.51%
      0     0   875194.5095   811  8713903.0000     Cuts: 508      985   89.96%
      0     0   898745.8647   881  8713903.0000     Cuts: 367     1011   89.69%
      0     0   917433.2916   909  8713903.0000     Cuts: 287     1037   89.47%
      0     0   928086.1413   920  8713903.0000     Cuts: 229     1064   89.35%
Advanced basis not built.

GUB cover cuts applied:  0
Clique cuts applied:  0
Cover cuts applied:  10
Implied bound cuts applied:  21
Flow cuts applied:  321
Mixed integer rounding cuts applied:  654
Flow path cuts applied:  204
Multi commodity flow cuts applied:  57
Gomory fractional cuts applied:  16

Root node processing (before b&c):
  Real time             =    5.00 sec. (4719.31 ticks)
Parallel b&c, 8 threads:
  Real time             =    0.00 sec. (0.00 ticks)
  Sync time (average)   =    0.00 sec.
  Wait time (average)   =    0.00 sec.
                          ------------
Total (root+branch&cut) =    5.00 sec. (4719.31 ticks)
Gap: 89.35%
Upper bound: 8.7139e+06
Lower bound: 928086
Termination status: Normal
End of CPLEX run. Time: 5.00311 seconds

===== New CPLEX run =====
Instance: /home/yorig/tuner/mpils-tests/instances/miplib/easy/lotsize.mps
Config: /scratch/yorig/mpils-results-grid-seconds-5-watchdog/easy/24proc/seed-5/4_lotsize_seed-5_20260504_011421/iterated_local_search/run_5_worker_1/ils_config_5410879343083309941.prm
========================

Selected objective sense:  MINIMIZE
Selected objective  name:  R1921
Selected RHS        name:  B
Selected bound      name:  BOUND
Wall watchdog: enabled factor=1 grace=1 limit=6 seconds
Version identifier: 22.1.2.0 | 2024-11-26 | 0edbb82fd
CPXPARAM_Threads                                 8
CPXPARAM_Parallel                                1
CPXPARAM_MIP_Cuts_Cliques                        3
CPXPARAM_Preprocessing_CoeffReduce               2
CPXPARAM_MIP_Cuts_Covers                         3
CPXPARAM_MIP_Strategy_SubAlgorithm               4
CPXPARAM_MIP_Cuts_FlowCovers                     2
CPXPARAM_MIP_Cuts_Implied                        2
CPXPARAM_MIP_Cuts_GUBCovers                      1
CPXPARAM_MIP_Cuts_Gomory                         2
CPXPARAM_MIP_Cuts_MIRCut                         -1
CPXPARAM_MIP_Cuts_Disjunctive                    -1
CPXPARAM_MIP_Limits_AggForCut                    1
CPXPARAM_Emphasis_MIP                            5
CPXPARAM_Preprocessing_Symmetry                  0
CPXPARAM_Barrier_Ordering                        1
CPXPARAM_Preprocessing_Fill                      20
CPXPARAM_TimeLimit                               5
CPXPARAM_MIP_Limits_CutsFactor                   16
Tried aggregator 1 time.
MIP Presolve eliminated 595 rows and 0 columns.
MIP Presolve added 1190 rows and 0 columns.
MIP Presolve modified 10 coefficients.
Reduced MIP has 2515 rows, 2985 columns, and 7755 nonzeros.
Reduced MIP has 1195 binaries, 0 generals, 0 SOSs, and 0 indicators.
Presolve time = 0.00 sec. (4.53 ticks)
Probing fixed 0 vars, tightened 5487 bounds.
Probing time = 0.01 sec. (18.38 ticks)
Tried aggregator 2 times.
MIP Presolve modified 1206 coefficients.
Aggregator did 10 substitutions.
Reduced MIP has 2505 rows, 2975 columns, and 7735 nonzeros.
Reduced MIP has 1195 binaries, 0 generals, 0 SOSs, and 0 indicators.
Presolve time = 0.00 sec. (5.29 ticks)
Probing fixed 0 vars, tightened 2401 bounds.
Probing time = 0.00 sec. (6.41 ticks)
Clique table members: 190.
MIP emphasis: heuristic.
MIP search method: dynamic search.
Parallel mode: deterministic, using up to 8 threads.
Root relaxation solution time = 0.01 sec. (7.84 ticks)

        Nodes                                         Cuts/
   Node  Left     Objective  IInf  Best Integer    Best Bound    ItCnt     Gap

      0     0   348385.3466   472                 348385.3466      882         
*     0+    0                       1.40386e+07   348385.3466            97.52%
      0     0   527311.9674   562   1.40386e+07     Cuts: 726      903   96.24%
      0     0   737095.3721   620   1.40386e+07     Cuts: 726      925   94.75%
      0     0   828278.3843   807   1.40386e+07     Cuts: 723      953   94.10%
*     0+    0                       1.05179e+07   828278.3843            92.13%
      0     0  -1.00000e+75     0   1.05179e+07   828278.3843      953   92.13%
      0     0   874546.9204   828   1.05179e+07     Cuts: 485      980   91.69%
      0     0   899145.4995   907   1.05179e+07     Cuts: 354     1006   91.45%
      0     0   918358.5678   902   1.05179e+07     Cuts: 280     1035   91.27%
      0     0   929954.3362   916   1.05179e+07     Cuts: 224     1061   91.16%
Advanced basis not built.

GUB cover cuts applied:  0
Clique cuts applied:  0
Cover cuts applied:  10
Implied bound cuts applied:  20
Flow cuts applied:  411
Mixed integer rounding cuts applied:  523
Flow path cuts applied:  220
Multi commodity flow cuts applied:  57
Gomory fractional cuts applied:  22

Root node processing (before b&c):
  Real time             =    5.00 sec. (4732.22 ticks)
Parallel b&c, 8 threads:
  Real time             =    0.00 sec. (0.00 ticks)
  Sync time (average)   =    0.00 sec.
  Wait time (average)   =    0.00 sec.
                          ------------
Total (root+branch&cut) =    5.00 sec. (4732.22 ticks)
Gap: 91.16%
Upper bound: 1.05179e+07
Lower bound: 929954
Termination status: Normal
End of CPLEX run. Time: 5.00482 seconds

===== New CPLEX run =====
Instance: /home/yorig/tuner/mpils-tests/instances/miplib/easy/lotsize.mps
Config: /scratch/yorig/mpils-results-grid-seconds-5-watchdog/easy/24proc/seed-5/4_lotsize_seed-5_20260504_011421/iterated_local_search/run_5_worker_1/ils_config_4733163231374742591.prm
========================

Selected objective sense:  MINIMIZE
Selected objective  name:  R1921
Selected RHS        name:  B
Selected bound      name:  BOUND
Wall watchdog: enabled factor=1 grace=1 limit=6 seconds
Version identifier: 22.1.2.0 | 2024-11-26 | 0edbb82fd
CPXPARAM_Threads                                 8
CPXPARAM_Parallel                                1
CPXPARAM_MIP_Cuts_Cliques                        3
CPXPARAM_Preprocessing_CoeffReduce               0
CPXPARAM_MIP_Cuts_Covers                         3
CPXPARAM_MIP_Strategy_SubAlgorithm               4
CPXPARAM_MIP_Cuts_FlowCovers                     2
CPXPARAM_MIP_Cuts_Implied                        2
CPXPARAM_MIP_Cuts_GUBCovers                      1
CPXPARAM_MIP_Cuts_Gomory                         2
CPXPARAM_MIP_Cuts_MIRCut                         2
CPXPARAM_MIP_Cuts_Disjunctive                    -1
CPXPARAM_MIP_Limits_AggForCut                    1
CPXPARAM_Emphasis_MIP                            5
CPXPARAM_Preprocessing_Symmetry                  0
CPXPARAM_Barrier_Ordering                        1
CPXPARAM_Preprocessing_Fill                      20
CPXPARAM_TimeLimit                               5
CPXPARAM_MIP_Limits_CutsFactor                   16
Tried aggregator 1 time.
MIP Presolve eliminated 590 rows and 0 columns.
MIP Presolve added 1190 rows and 0 columns.
Reduced MIP has 2520 rows, 2985 columns, and 7765 nonzeros.
Reduced MIP has 1195 binaries, 0 generals, 0 SOSs, and 0 indicators.
Presolve time = 0.00 sec. (4.28 ticks)
Probing fixed 0 vars, tightened 5146 bounds.
Probing time = 0.01 sec. (18.21 ticks)
Tried aggregator 2 times.
MIP Presolve eliminated 5 rows and 0 columns.
MIP Presolve modified 616 coefficients.
Aggregator did 10 substitutions.
Reduced MIP has 2505 rows, 2975 columns, and 7735 nonzeros.
Reduced MIP has 1195 binaries, 0 generals, 0 SOSs, and 0 indicators.
Presolve time = 0.00 sec. (7.11 ticks)
Probing fixed 0 vars, tightened 2342 bounds.
Probing time = 0.00 sec. (6.42 ticks)
Clique table members: 190.
MIP emphasis: heuristic.
MIP search method: dynamic search.
Parallel mode: deterministic, using up to 8 threads.
Root relaxation solution time = 0.01 sec. (7.84 ticks)

        Nodes                                         Cuts/
   Node  Left     Objective  IInf  Best Integer    Best Bound    ItCnt     Gap

      0     0   348385.3466   473                 348385.3466      882         
*     0+    0                       1.50398e+07   348385.3466            97.68%
      0     0   528900.4735   559   1.50398e+07     Cuts: 726      904   96.48%
      0     0   738204.6438   628   1.50398e+07     Cuts: 726      928   95.09%
      0     0   830025.3617   815   1.50398e+07     Cuts: 726      956   94.48%
*     0+    0                      9682946.0000   830025.3617            91.43%
      0     0  -1.00000e+75     0  9682946.0000   830025.3617      956   91.43%
      0     0   876079.4567   823  9682946.0000     Cuts: 506      985   90.95%
      0     0   899915.2199   896  9682946.0000     Cuts: 389     1012   90.71%
      0     0   921918.0495   877  9682946.0000     Cuts: 318     1039   90.48%
Advanced basis not built.

GUB cover cuts applied:  0
Clique cuts applied:  0
Cover cuts applied:  10
Implied bound cuts applied:  23
Flow cuts applied:  325
Mixed integer rounding cuts applied:  621
Flow path cuts applied:  225
Multi commodity flow cuts applied:  47
Gomory fractional cuts applied:  14

Root node processing (before b&c):
  Real time             =    5.00 sec. (4637.24 ticks)
Parallel b&c, 8 threads:
  Real time             =    0.00 sec. (0.00 ticks)
  Sync time (average)   =    0.00 sec.
  Wait time (average)   =    0.00 sec.
                          ------------
Total (root+branch&cut) =    5.00 sec. (4637.24 ticks)
Gap: 90.48%
Upper bound: 9.68295e+06
Lower bound: 921918
Termination status: Normal
End of CPLEX run. Time: 5.00395 seconds

===== New CPLEX run =====
Instance: /home/yorig/tuner/mpils-tests/instances/miplib/easy/lotsize.mps
Config: /scratch/yorig/mpils-results-grid-seconds-5-watchdog/easy/24proc/seed-5/4_lotsize_seed-5_20260504_011421/iterated_local_search/run_5_worker_1/ils_config_155197511415421472.prm
========================

Selected objective sense:  MINIMIZE
Selected objective  name:  R1921
Selected RHS        name:  B
Selected bound      name:  BOUND
Wall watchdog: enabled factor=1 grace=1 limit=6 seconds
Version identifier: 22.1.2.0 | 2024-11-26 | 0edbb82fd
CPXPARAM_Threads                                 8
CPXPARAM_Parallel                                1
CPXPARAM_MIP_Cuts_Cliques                        3
CPXPARAM_Preprocessing_CoeffReduce               2
CPXPARAM_MIP_Cuts_Covers                         3
CPXPARAM_MIP_Strategy_SubAlgorithm               4
CPXPARAM_MIP_Cuts_FlowCovers                     2
CPXPARAM_MIP_Cuts_Implied                        2
CPXPARAM_MIP_Cuts_GUBCovers                      2
CPXPARAM_MIP_Cuts_Gomory                         2
CPXPARAM_MIP_Cuts_MIRCut                         2
CPXPARAM_MIP_Cuts_Disjunctive                    -1
CPXPARAM_MIP_Limits_AggForCut                    1
CPXPARAM_Emphasis_MIP                            5
CPXPARAM_Preprocessing_Symmetry                  0
CPXPARAM_Barrier_Ordering                        1
CPXPARAM_Preprocessing_Fill                      20
CPXPARAM_TimeLimit                               5
CPXPARAM_MIP_Limits_CutsFactor                   16
Tried aggregator 1 time.
MIP Presolve eliminated 595 rows and 0 columns.
MIP Presolve added 1190 rows and 0 columns.
MIP Presolve modified 10 coefficients.
Reduced MIP has 2515 rows, 2985 columns, and 7755 nonzeros.
Reduced MIP has 1195 binaries, 0 generals, 0 SOSs, and 0 indicators.
Presolve time = 0.00 sec. (4.53 ticks)
Probing fixed 0 vars, tightened 5487 bounds.
Probing time = 0.01 sec. (18.38 ticks)
Tried aggregator 2 times.
MIP Presolve modified 1206 coefficients.
Aggregator did 10 substitutions.
Reduced MIP has 2505 rows, 2975 columns, and 7735 nonzeros.
Reduced MIP has 1195 binaries, 0 generals, 0 SOSs, and 0 indicators.
Presolve time = 0.00 sec. (5.29 ticks)
Probing fixed 0 vars, tightened 2401 bounds.
Probing time = 0.00 sec. (6.41 ticks)
Clique table members: 190.
MIP emphasis: heuristic.
MIP search method: dynamic search.
Parallel mode: deterministic, using up to 8 threads.
Root relaxation solution time = 0.01 sec. (7.84 ticks)

        Nodes                                         Cuts/
   Node  Left     Objective  IInf  Best Integer    Best Bound    ItCnt     Gap

      0     0   348385.3466   472                 348385.3466      882         
*     0+    0                       1.40386e+07   348385.3466            97.52%
      0     0   527311.9674   562   1.40386e+07     Cuts: 726      903   96.24%
      0     0   736766.2211   620   1.40386e+07     Cuts: 726      926   94.75%
      0     0   827318.5417   819   1.40386e+07     Cuts: 726      956   94.11%
*     0+    0                      8713903.0000   827318.5417            90.51%
      0     0  -1.00000e+75     0  8713903.0000   827318.5417      956   90.51%
      0     0   875194.5095   811  8713903.0000     Cuts: 508      985   89.96%
      0     0   898745.8647   881  8713903.0000     Cuts: 367     1011   89.69%
      0     0   917433.2916   909  8713903.0000     Cuts: 287     1037   89.47%
      0     0   928086.1413   920  8713903.0000     Cuts: 229     1064   89.35%

GUB cover cuts applied:  0
Clique cuts applied:  0
Cover cuts applied:  10
Implied bound cuts applied:  21
Flow cuts applied:  321
Mixed integer rounding cuts applied:  654
Flow path cuts applied:  204
Multi commodity flow cuts applied:  57
Gomory fractional cuts applied:  16

Root node processing (before b&c):
  Real time             =    5.00 sec. (4748.78 ticks)
Parallel b&c, 8 threads:
  Real time             =    0.00 sec. (0.00 ticks)
  Sync time (average)   =    0.00 sec.
  Wait time (average)   =    0.00 sec.
                          ------------
Total (root+branch&cut) =    5.00 sec. (4748.78 ticks)
Gap: 89.35%
Upper bound: 8.7139e+06
Lower bound: 928086
Termination status: Normal
End of CPLEX run. Time: 5.00203 seconds

===== New CPLEX run =====
Instance: /home/yorig/tuner/mpils-tests/instances/miplib/easy/lotsize.mps
Config: /scratch/yorig/mpils-results-grid-seconds-5-watchdog/easy/24proc/seed-5/4_lotsize_seed-5_20260504_011421/iterated_local_search/run_5_worker_1/ils_config_11097149428088008408.prm
========================

Selected objective sense:  MINIMIZE
Selected objective  name:  R1921
Selected RHS        name:  B
Selected bound      name:  BOUND
Wall watchdog: enabled factor=1 grace=1 limit=6 seconds
Version identifier: 22.1.2.0 | 2024-11-26 | 0edbb82fd
CPXPARAM_Threads                                 8
CPXPARAM_Parallel                                1
CPXPARAM_MIP_Cuts_Cliques                        3
CPXPARAM_Preprocessing_CoeffReduce               2
CPXPARAM_MIP_Cuts_Covers                         3
CPXPARAM_MIP_Strategy_SubAlgorithm               4
CPXPARAM_MIP_Cuts_FlowCovers                     2
CPXPARAM_MIP_Cuts_Implied                        2
CPXPARAM_MIP_Cuts_GUBCovers                      1
CPXPARAM_MIP_Cuts_Gomory                         2
CPXPARAM_MIP_Cuts_MIRCut                         2
CPXPARAM_MIP_Cuts_Disjunctive                    -1
CPXPARAM_MIP_Limits_AggForCut                    1
CPXPARAM_Emphasis_MIP                            5
CPXPARAM_Preprocessing_Symmetry                  5
CPXPARAM_Barrier_Ordering                        1
CPXPARAM_Preprocessing_Fill                      20
CPXPARAM_TimeLimit                               5
CPXPARAM_MIP_Limits_CutsFactor                   16
Tried aggregator 1 time.
MIP Presolve eliminated 595 rows and 0 columns.
MIP Presolve added 1190 rows and 0 columns.
MIP Presolve modified 10 coefficients.
Reduced MIP has 2515 rows, 2985 columns, and 7755 nonzeros.
Reduced MIP has 1195 binaries, 0 generals, 0 SOSs, and 0 indicators.
Presolve time = 0.00 sec. (4.53 ticks)
Probing fixed 0 vars, tightened 5487 bounds.
Probing time = 0.01 sec. (18.38 ticks)
Tried aggregator 2 times.
Detecting symmetries...
MIP Presolve modified 1206 coefficients.
Aggregator did 10 substitutions.
Reduced MIP has 2505 rows, 2975 columns, and 7735 nonzeros.
Reduced MIP has 1195 binaries, 0 generals, 0 SOSs, and 0 indicators.
Presolve time = 0.00 sec. (6.66 ticks)
Probing fixed 0 vars, tightened 2401 bounds.
Probing time = 0.00 sec. (6.41 ticks)
Clique table members: 190.
MIP emphasis: heuristic.
MIP search method: dynamic search.
Parallel mode: deterministic, using up to 8 threads.
Root relaxation solution time = 0.01 sec. (7.84 ticks)

        Nodes                                         Cuts/
   Node  Left     Objective  IInf  Best Integer    Best Bound    ItCnt     Gap

      0     0   348385.3466   472                 348385.3466      882         
*     0+    0                       1.40386e+07   348385.3466            97.52%
      0     0   527311.9674   562   1.40386e+07     Cuts: 726      903   96.24%
      0     0   736766.2211   620   1.40386e+07     Cuts: 726      926   94.75%
      0     0   827318.5417   819   1.40386e+07     Cuts: 726      956   94.11%
*     0+    0                      8713903.0000   827318.5417            90.51%
      0     0  -1.00000e+75     0  8713903.0000   827318.5417      956   90.51%
      0     0   875194.5095   811  8713903.0000     Cuts: 508      985   89.96%
      0     0   898745.8647   881  8713903.0000     Cuts: 367     1011   89.69%
Detecting symmetries...
      0     0   917433.2916   909  8713903.0000     Cuts: 287     1037   89.47%
      0     0   928086.1413   920  8713903.0000     Cuts: 229     1064   89.35%

GUB cover cuts applied:  0
Clique cuts applied:  0
Cover cuts applied:  10
Implied bound cuts applied:  21
Flow cuts applied:  321
Mixed integer rounding cuts applied:  654
Flow path cuts applied:  204
Multi commodity flow cuts applied:  57
Gomory fractional cuts applied:  16

Root node processing (before b&c):
  Real time             =    5.00 sec. (4732.94 ticks)
Parallel b&c, 8 threads:
  Real time             =    0.00 sec. (0.00 ticks)
  Sync time (average)   =    0.00 sec.
  Wait time (average)   =    0.00 sec.
                          ------------
Total (root+branch&cut) =    5.00 sec. (4732.94 ticks)
Gap: 89.35%
Upper bound: 8.7139e+06
Lower bound: 928086
Termination status: Normal
End of CPLEX run. Time: 5.00211 seconds
